c Reduced graph for GEOM120_0 generated by Cyril Grelier
p edge 118 760
e 1 2
e 1 3
e 1 4
e 1 7
e 1 9
e 1 10
e 1 11
e 1 15
e 1 17
e 1 19
e 1 23
e 1 29
e 1 37
e 1 38
e 1 42
e 1 57
e 1 58
e 1 62
e 1 64
e 1 69
e 1 72
e 2 3
e 2 4
e 2 7
e 2 9
e 2 10
e 2 11
e 2 15
e 2 17
e 2 19
e 2 23
e 2 29
e 2 30
e 2 37
e 2 38
e 2 57
e 2 58
e 2 64
e 2 69
e 2 72
e 3 4
e 3 5
e 3 7
e 3 9
e 3 10
e 3 11
e 3 15
e 3 17
e 3 19
e 3 20
e 3 32
e 3 38
e 3 45
e 3 56
e 3 61
e 3 81
e 3 84
e 4 5
e 4 7
e 4 9
e 4 10
e 4 11
e 4 15
e 4 17
e 4 19
e 4 23
e 4 29
e 4 30
e 4 32
e 4 38
e 4 55
e 4 68
e 4 80
e 5 7
e 5 8
e 5 13
e 5 19
e 5 20
e 5 22
e 5 26
e 5 32
e 5 38
e 5 45
e 5 50
e 5 56
e 5 61
e 5 81
e 5 84
e 5 90
e 6 8
e 6 12
e 6 13
e 6 14
e 6 16
e 6 20
e 6 21
e 6 26
e 6 27
e 6 28
e 6 33
e 6 41
e 6 45
e 6 46
e 6 50
e 6 53
e 6 61
e 6 67
e 7 9
e 7 11
e 7 15
e 7 17
e 7 19
e 7 30
e 7 32
e 7 55
e 7 56
e 7 68
e 7 84
e 7 102
e 7 114
e 8 12
e 8 13
e 8 14
e 8 16
e 8 20
e 8 21
e 8 22
e 8 26
e 8 32
e 8 33
e 8 41
e 8 45
e 8 50
e 8 56
e 8 61
e 8 67
e 9 10
e 9 11
e 9 15
e 9 17
e 9 19
e 9 23
e 9 29
e 9 30
e 9 38
e 9 55
e 9 64
e 9 68
e 9 80
e 10 11
e 10 15
e 10 17
e 10 19
e 10 23
e 10 29
e 10 30
e 10 57
e 10 64
e 10 68
e 10 69
e 10 72
e 10 80
e 11 15
e 11 17
e 11 19
e 11 23
e 11 29
e 11 30
e 11 38
e 11 55
e 11 68
e 11 80
e 12 13
e 12 14
e 12 16
e 12 21
e 12 22
e 12 25
e 12 26
e 12 27
e 12 28
e 12 33
e 12 36
e 12 41
e 12 45
e 12 46
e 12 67
e 13 14
e 13 16
e 13 20
e 13 22
e 13 26
e 13 32
e 13 33
e 13 45
e 13 50
e 13 56
e 13 61
e 13 84
e 13 90
e 14 16
e 14 21
e 14 22
e 14 25
e 14 26
e 14 27
e 14 28
e 14 33
e 14 36
e 14 41
e 14 46
e 14 67
e 14 110
e 15 17
e 15 19
e 15 29
e 15 30
e 15 55
e 15 68
e 15 80
e 15 102
e 15 116
e 16 20
e 16 21
e 16 22
e 16 26
e 16 33
e 16 41
e 16 45
e 16 46
e 16 50
e 16 61
e 16 67
e 16 110
e 17 19
e 17 29
e 17 30
e 17 55
e 17 68
e 17 80
e 17 116
e 18 31
e 18 34
e 18 35
e 18 43
e 18 44
e 18 49
e 18 51
e 18 52
e 18 53
e 18 54
e 18 59
e 18 63
e 18 71
e 18 73
e 18 75
e 18 77
e 19 23
e 19 30
e 19 32
e 19 38
e 19 55
e 20 22
e 20 26
e 20 32
e 20 33
e 20 45
e 20 50
e 20 56
e 20 61
e 20 84
e 20 90
e 21 22
e 21 25
e 21 27
e 21 33
e 21 36
e 21 39
e 21 46
e 21 47
e 21 70
e 21 79
e 21 110
e 22 32
e 22 33
e 22 39
e 22 56
e 22 84
e 22 90
e 22 110
e 22 118
e 23 29
e 23 37
e 23 42
e 23 57
e 23 58
e 23 64
e 23 69
e 23 72
e 23 78
e 24 54
e 24 65
e 24 66
e 24 71
e 24 75
e 24 76
e 24 77
e 24 82
e 24 85
e 24 86
e 24 87
e 24 88
e 24 89
e 24 93
e 24 95
e 24 101
e 25 27
e 25 28
e 25 36
e 25 41
e 25 46
e 25 47
e 25 60
e 25 83
e 25 91
e 25 92
e 25 96
e 25 106
e 25 115
e 26 33
e 26 41
e 26 45
e 26 50
e 26 53
e 26 61
e 26 67
e 26 81
e 27 28
e 27 36
e 27 41
e 27 46
e 27 47
e 27 60
e 27 83
e 27 92
e 27 96
e 27 106
e 27 115
e 28 41
e 28 46
e 28 47
e 28 60
e 28 67
e 28 73
e 28 83
e 28 91
e 28 92
e 28 96
e 28 112
e 29 30
e 29 57
e 29 64
e 29 68
e 29 72
e 29 80
e 30 55
e 30 68
e 30 80
e 30 102
e 30 116
e 31 34
e 31 35
e 31 40
e 31 43
e 31 44
e 31 48
e 31 49
e 31 51
e 31 52
e 31 59
e 31 63
e 31 104
e 31 113
e 31 117
e 32 45
e 32 56
e 32 84
e 32 90
e 32 102
e 32 114
e 33 36
e 33 39
e 33 56
e 33 110
e 33 118
e 34 35
e 34 40
e 34 43
e 34 44
e 34 48
e 34 49
e 34 51
e 34 52
e 34 59
e 34 60
e 34 63
e 34 73
e 34 83
e 35 40
e 35 43
e 35 44
e 35 48
e 35 49
e 35 51
e 35 52
e 35 59
e 35 63
e 35 104
e 35 113
e 35 117
e 36 39
e 36 47
e 36 70
e 36 79
e 36 92
e 36 97
e 36 100
e 36 106
e 36 110
e 37 38
e 37 42
e 37 57
e 37 58
e 37 62
e 37 64
e 37 69
e 37 72
e 37 74
e 37 78
e 37 81
e 37 94
e 38 42
e 38 45
e 38 50
e 38 61
e 38 62
e 38 81
e 39 70
e 39 79
e 39 97
e 39 98
e 39 100
e 39 107
e 39 108
e 39 109
e 39 110
e 39 118
e 40 43
e 40 44
e 40 48
e 40 49
e 40 51
e 40 52
e 40 59
e 40 63
e 40 104
e 40 113
e 40 117
e 41 46
e 41 53
e 41 60
e 41 67
e 41 73
e 42 57
e 42 58
e 42 62
e 42 64
e 42 69
e 42 72
e 42 74
e 42 78
e 42 81
e 42 94
e 43 44
e 43 48
e 43 49
e 43 51
e 43 52
e 43 59
e 43 60
e 43 63
e 43 73
e 44 48
e 44 49
e 44 51
e 44 52
e 44 59
e 44 63
e 44 71
e 44 77
e 45 50
e 45 61
e 45 81
e 46 47
e 46 60
e 46 67
e 46 73
e 46 83
e 47 70
e 47 79
e 47 83
e 47 91
e 47 92
e 47 96
e 47 106
e 47 115
e 48 49
e 48 51
e 48 52
e 48 63
e 48 104
e 48 112
e 48 113
e 48 117
e 49 51
e 49 52
e 49 59
e 49 63
e 49 71
e 49 77
e 50 53
e 50 61
e 50 62
e 50 67
e 50 81
e 51 52
e 51 59
e 51 63
e 51 77
e 51 104
e 52 59
e 52 63
e 52 71
e 52 77
e 53 54
e 53 61
e 53 66
e 53 67
e 53 73
e 53 75
e 53 86
e 53 93
e 53 101
e 54 65
e 54 66
e 54 71
e 54 73
e 54 75
e 54 77
e 54 86
e 54 88
e 54 93
e 54 101
e 55 68
e 55 80
e 55 102
e 55 114
e 55 116
e 56 84
e 56 90
e 56 102
e 56 114
e 57 58
e 57 62
e 57 64
e 57 69
e 57 72
e 57 78
e 58 62
e 58 64
e 58 69
e 58 72
e 58 74
e 58 78
e 58 94
e 59 60
e 59 63
e 59 73
e 60 67
e 60 73
e 60 83
e 60 91
e 60 112
e 61 81
e 62 69
e 62 74
e 62 78
e 62 81
e 62 93
e 62 101
e 63 104
e 64 69
e 64 72
e 64 78
e 65 66
e 65 71
e 65 75
e 65 76
e 65 77
e 65 82
e 65 85
e 65 86
e 65 88
e 65 89
e 65 95
e 66 71
e 66 74
e 66 75
e 66 85
e 66 86
e 66 88
e 66 93
e 66 95
e 66 101
e 67 73
e 68 80
e 68 116
e 69 72
e 69 78
e 70 79
e 70 97
e 70 98
e 70 100
e 70 106
e 70 107
e 70 108
e 70 109
e 71 75
e 71 77
e 71 88
e 71 95
e 72 78
e 73 75
e 74 78
e 74 86
e 74 93
e 74 94
e 74 99
e 74 101
e 74 103
e 75 77
e 75 86
e 75 93
e 75 101
e 76 82
e 76 85
e 76 87
e 76 88
e 76 89
e 76 95
e 76 99
e 76 103
e 76 105
e 76 111
e 77 88
e 77 95
e 78 94
e 78 99
e 79 97
e 79 98
e 79 100
e 79 107
e 79 108
e 79 109
e 80 116
e 81 93
e 82 85
e 82 87
e 82 88
e 82 89
e 82 95
e 82 103
e 82 105
e 82 111
e 83 91
e 83 92
e 83 96
e 83 112
e 84 90
e 84 102
e 84 114
e 85 87
e 85 88
e 85 89
e 85 95
e 85 105
e 85 111
e 86 93
e 86 94
e 86 99
e 86 101
e 87 89
e 87 94
e 87 99
e 87 103
e 87 105
e 87 111
e 88 95
e 89 95
e 89 103
e 89 105
e 89 111
e 90 102
e 90 114
e 90 118
e 91 92
e 91 96
e 91 106
e 91 112
e 91 115
e 92 96
e 92 106
e 92 115
e 93 101
e 94 99
e 94 103
e 94 105
e 96 106
e 96 112
e 96 115
e 97 98
e 97 100
e 97 107
e 97 108
e 97 109
e 98 100
e 98 107
e 98 108
e 98 109
e 98 118
e 99 103
e 99 105
e 99 111
e 100 107
e 100 108
e 100 109
e 102 114
e 103 105
e 103 111
e 104 112
e 104 113
e 104 117
e 105 111
e 106 115
e 107 108
e 107 109
e 108 109
e 110 118
e 112 113
e 113 117
